<instance format="XCSP3" type="CSP">
  <constraints>
    <ordered id="c1">
      <list> x1 x2 x3 x4 </list>
      <operator> lt </operator>
    </ordered>
    <ordered id="c2">
      <list> y1 y2 y3  </list>
      <lengths> 5 3 </lengths>
      <operator> ge </operator>
    </ordered>
  </constraints>
</instance>
